lbl,CUST NO.,READY TIME,XCOORD.,YCOORD.,DEMAND,DUE DATE,SERVICE TIME
5,504,107,211,62,8,117,10
5,127,141,242,70,22,151,10
5,320,222,247,86,21,232,10
5,110,392,209,84,13,402,10
5,330,415,253,84,11,425,10
5,129,483,224,61,22,493,10
5,290,489,250,49,11,499,10
5,597,529,225,73,9,539,10
5,190,554,246,93,14,564,10
5,281,594,239,84,17,604,10
5,346,648,253,69,20,658,10
5,572,732,238,103,16,742,10
5,72,736,222,100,18,746,10
5,40,815,227,62,16,825,10
5,459,831,230,80,26,841,10
5,46,1056,254,87,7,1066,10
